c Standarized MaxSat Instance
c{
c "sha1sum": "172b4458563fa7645f31305a062c1792b9786c49",
c "nvars": 60,
c "ncls": 840,
c "nhards": 0,
c "nhard_len_stats":
c    { "min": 0, "max": 0, "ave": 0.00,
c      "stddev": 0.00 },
c "nsofts": 840,
c "nsoft_len_stats":
c    { "min": 2, "max": 2, "ave": 2.00,
c      "stddev": 0.00 },
c "nsoft_wts": 10,
c "soft_wt_stats":
c    { "min": 1, "max": 10, "ave": 5.61,
c      "stddev": 2.87 }
c}
c------------------------------------------------------------
c Generated after 1 tries
c Graph with 60 nodes and 420 edges, Max edges:1770
p wcnf 60 840 4713
9 1 5 0
9 -1 -5 0
4 1 6 0
4 -1 -6 0
8 1 8 0
8 -1 -8 0
8 1 12 0
8 -1 -12 0
10 1 15 0
10 -1 -15 0
2 1 16 0
2 -1 -16 0
4 1 21 0
4 -1 -21 0
8 1 22 0
8 -1 -22 0
3 1 34 0
3 -1 -34 0
6 1 35 0
6 -1 -35 0
5 1 44 0
5 -1 -44 0
7 1 46 0
7 -1 -46 0
4 1 52 0
4 -1 -52 0
6 1 55 0
6 -1 -55 0
10 2 4 0
10 -2 -4 0
10 2 11 0
10 -2 -11 0
7 2 12 0
7 -2 -12 0
8 2 13 0
8 -2 -13 0
2 2 21 0
2 -2 -21 0
7 2 23 0
7 -2 -23 0
1 2 31 0
1 -2 -31 0
3 2 35 0
3 -2 -35 0
2 2 37 0
2 -2 -37 0
9 2 51 0
9 -2 -51 0
2 2 52 0
2 -2 -52 0
5 2 59 0
5 -2 -59 0
2 3 6 0
2 -3 -6 0
2 3 11 0
2 -3 -11 0
10 3 13 0
10 -3 -13 0
3 3 21 0
3 -3 -21 0
6 3 24 0
6 -3 -24 0
9 3 28 0
9 -3 -28 0
7 3 29 0
7 -3 -29 0
3 3 34 0
3 -3 -34 0
7 3 45 0
7 -3 -45 0
6 3 47 0
6 -3 -47 0
5 3 48 0
5 -3 -48 0
10 3 53 0
10 -3 -53 0
3 3 59 0
3 -3 -59 0
8 3 60 0
8 -3 -60 0
6 4 9 0
6 -4 -9 0
8 4 11 0
8 -4 -11 0
5 4 14 0
5 -4 -14 0
9 4 17 0
9 -4 -17 0
3 4 18 0
3 -4 -18 0
4 4 24 0
4 -4 -24 0
9 4 28 0
9 -4 -28 0
10 4 40 0
10 -4 -40 0
1 4 43 0
1 -4 -43 0
10 4 44 0
10 -4 -44 0
6 4 47 0
6 -4 -47 0
1 4 56 0
1 -4 -56 0
2 4 57 0
2 -4 -57 0
7 5 8 0
7 -5 -8 0
9 5 15 0
9 -5 -15 0
4 5 19 0
4 -5 -19 0
1 5 20 0
1 -5 -20 0
1 5 28 0
1 -5 -28 0
5 5 31 0
5 -5 -31 0
1 5 35 0
1 -5 -35 0
3 5 42 0
3 -5 -42 0
10 5 43 0
10 -5 -43 0
10 5 48 0
10 -5 -48 0
9 5 49 0
9 -5 -49 0
3 5 50 0
3 -5 -50 0
6 6 8 0
6 -6 -8 0
4 6 9 0
4 -6 -9 0
8 6 16 0
8 -6 -16 0
6 6 17 0
6 -6 -17 0
7 6 20 0
7 -6 -20 0
6 6 21 0
6 -6 -21 0
1 6 28 0
1 -6 -28 0
5 6 34 0
5 -6 -34 0
10 6 39 0
10 -6 -39 0
10 6 41 0
10 -6 -41 0
8 6 42 0
8 -6 -42 0
3 6 44 0
3 -6 -44 0
8 6 45 0
8 -6 -45 0
7 6 46 0
7 -6 -46 0
4 6 52 0
4 -6 -52 0
7 6 53 0
7 -6 -53 0
2 6 54 0
2 -6 -54 0
5 6 57 0
5 -6 -57 0
9 7 12 0
9 -7 -12 0
9 7 20 0
9 -7 -20 0
4 7 24 0
4 -7 -24 0
3 7 26 0
3 -7 -26 0
9 7 28 0
9 -7 -28 0
4 7 31 0
4 -7 -31 0
7 7 33 0
7 -7 -33 0
10 7 43 0
10 -7 -43 0
6 7 44 0
6 -7 -44 0
7 7 50 0
7 -7 -50 0
9 7 59 0
9 -7 -59 0
5 7 60 0
5 -7 -60 0
10 8 10 0
10 -8 -10 0
4 8 11 0
4 -8 -11 0
9 8 16 0
9 -8 -16 0
7 8 33 0
7 -8 -33 0
10 8 39 0
10 -8 -39 0
5 8 43 0
5 -8 -43 0
3 8 49 0
3 -8 -49 0
10 8 51 0
10 -8 -51 0
10 8 56 0
10 -8 -56 0
2 8 57 0
2 -8 -57 0
9 8 58 0
9 -8 -58 0
7 9 13 0
7 -9 -13 0
5 9 14 0
5 -9 -14 0
7 9 27 0
7 -9 -27 0
3 9 31 0
3 -9 -31 0
8 9 34 0
8 -9 -34 0
4 9 35 0
4 -9 -35 0
5 9 37 0
5 -9 -37 0
3 9 38 0
3 -9 -38 0
2 9 51 0
2 -9 -51 0
3 10 14 0
3 -10 -14 0
6 10 16 0
6 -10 -16 0
5 10 17 0
5 -10 -17 0
2 10 19 0
2 -10 -19 0
10 10 21 0
10 -10 -21 0
2 10 24 0
2 -10 -24 0
2 10 26 0
2 -10 -26 0
5 10 27 0
5 -10 -27 0
8 10 32 0
8 -10 -32 0
10 10 45 0
10 -10 -45 0
10 10 49 0
10 -10 -49 0
7 10 50 0
7 -10 -50 0
4 10 52 0
4 -10 -52 0
8 11 12 0
8 -11 -12 0
4 11 18 0
4 -11 -18 0
3 11 19 0
3 -11 -19 0
3 11 23 0
3 -11 -23 0
6 11 25 0
6 -11 -25 0
3 11 29 0
3 -11 -29 0
2 11 32 0
2 -11 -32 0
8 11 33 0
8 -11 -33 0
2 11 34 0
2 -11 -34 0
8 11 35 0
8 -11 -35 0
2 11 43 0
2 -11 -43 0
8 11 44 0
8 -11 -44 0
1 11 45 0
1 -11 -45 0
10 11 47 0
10 -11 -47 0
1 11 49 0
1 -11 -49 0
6 11 57 0
6 -11 -57 0
2 11 60 0
2 -11 -60 0
3 12 17 0
3 -12 -17 0
8 12 21 0
8 -12 -21 0
8 12 22 0
8 -12 -22 0
7 12 30 0
7 -12 -30 0
10 12 32 0
10 -12 -32 0
7 12 50 0
7 -12 -50 0
8 12 51 0
8 -12 -51 0
1 12 55 0
1 -12 -55 0
2 13 14 0
2 -13 -14 0
6 13 15 0
6 -13 -15 0
1 13 17 0
1 -13 -17 0
1 13 26 0
1 -13 -26 0
3 13 40 0
3 -13 -40 0
5 13 46 0
5 -13 -46 0
9 13 50 0
9 -13 -50 0
6 13 51 0
6 -13 -51 0
8 13 55 0
8 -13 -55 0
1 13 56 0
1 -13 -56 0
2 13 58 0
2 -13 -58 0
10 14 21 0
10 -14 -21 0
3 14 25 0
3 -14 -25 0
9 14 33 0
9 -14 -33 0
2 14 34 0
2 -14 -34 0
10 14 36 0
10 -14 -36 0
1 14 37 0
1 -14 -37 0
9 14 42 0
9 -14 -42 0
1 14 59 0
1 -14 -59 0
1 15 19 0
1 -15 -19 0
10 15 23 0
10 -15 -23 0
6 15 25 0
6 -15 -25 0
2 15 29 0
2 -15 -29 0
2 15 31 0
2 -15 -31 0
4 15 38 0
4 -15 -38 0
10 15 44 0
10 -15 -44 0
9 15 49 0
9 -15 -49 0
4 15 54 0
4 -15 -54 0
6 15 58 0
6 -15 -58 0
6 15 60 0
6 -15 -60 0
5 16 24 0
5 -16 -24 0
7 16 30 0
7 -16 -30 0
1 16 31 0
1 -16 -31 0
6 17 18 0
6 -17 -18 0
8 17 26 0
8 -17 -26 0
4 17 31 0
4 -17 -31 0
10 17 34 0
10 -17 -34 0
6 17 39 0
6 -17 -39 0
9 17 43 0
9 -17 -43 0
8 17 44 0
8 -17 -44 0
7 17 45 0
7 -17 -45 0
1 17 49 0
1 -17 -49 0
8 17 50 0
8 -17 -50 0
9 17 54 0
9 -17 -54 0
10 18 19 0
10 -18 -19 0
9 18 24 0
9 -18 -24 0
9 18 33 0
9 -18 -33 0
10 18 38 0
10 -18 -38 0
8 18 40 0
8 -18 -40 0
10 18 46 0
10 -18 -46 0
10 18 48 0
10 -18 -48 0
7 18 53 0
7 -18 -53 0
5 18 54 0
5 -18 -54 0
2 19 21 0
2 -19 -21 0
9 19 25 0
9 -19 -25 0
9 19 26 0
9 -19 -26 0
1 19 31 0
1 -19 -31 0
7 19 33 0
7 -19 -33 0
3 19 44 0
3 -19 -44 0
7 19 51 0
7 -19 -51 0
3 20 28 0
3 -20 -28 0
8 20 30 0
8 -20 -30 0
4 20 31 0
4 -20 -31 0
4 20 32 0
4 -20 -32 0
3 20 38 0
3 -20 -38 0
1 20 39 0
1 -20 -39 0
7 20 56 0
7 -20 -56 0
3 20 57 0
3 -20 -57 0
7 20 59 0
7 -20 -59 0
6 21 23 0
6 -21 -23 0
10 21 25 0
10 -21 -25 0
3 21 26 0
3 -21 -26 0
6 21 30 0
6 -21 -30 0
8 21 32 0
8 -21 -32 0
2 21 33 0
2 -21 -33 0
5 21 38 0
5 -21 -38 0
6 21 42 0
6 -21 -42 0
10 21 53 0
10 -21 -53 0
5 21 57 0
5 -21 -57 0
4 22 25 0
4 -22 -25 0
9 22 35 0
9 -22 -35 0
5 22 39 0
5 -22 -39 0
1 22 40 0
1 -22 -40 0
4 22 41 0
4 -22 -41 0
6 22 44 0
6 -22 -44 0
9 22 45 0
9 -22 -45 0
3 22 49 0
3 -22 -49 0
7 22 54 0
7 -22 -54 0
5 22 57 0
5 -22 -57 0
5 22 58 0
5 -22 -58 0
4 23 30 0
4 -23 -30 0
8 23 37 0
8 -23 -37 0
2 23 40 0
2 -23 -40 0
7 23 44 0
7 -23 -44 0
1 23 48 0
1 -23 -48 0
5 23 50 0
5 -23 -50 0
7 23 59 0
7 -23 -59 0
7 24 25 0
7 -24 -25 0
7 24 30 0
7 -24 -30 0
4 24 31 0
4 -24 -31 0
2 24 34 0
2 -24 -34 0
7 24 43 0
7 -24 -43 0
7 24 45 0
7 -24 -45 0
8 24 47 0
8 -24 -47 0
4 24 49 0
4 -24 -49 0
8 24 52 0
8 -24 -52 0
3 24 57 0
3 -24 -57 0
10 25 27 0
10 -25 -27 0
7 25 33 0
7 -25 -33 0
7 25 35 0
7 -25 -35 0
3 25 38 0
3 -25 -38 0
6 25 40 0
6 -25 -40 0
1 25 47 0
1 -25 -47 0
3 25 49 0
3 -25 -49 0
9 25 52 0
9 -25 -52 0
7 25 53 0
7 -25 -53 0
1 25 55 0
1 -25 -55 0
2 25 57 0
2 -25 -57 0
4 25 60 0
4 -25 -60 0
6 26 28 0
6 -26 -28 0
6 26 30 0
6 -26 -30 0
7 26 32 0
7 -26 -32 0
3 26 36 0
3 -26 -36 0
8 26 48 0
8 -26 -48 0
3 27 28 0
3 -27 -28 0
4 27 35 0
4 -27 -35 0
2 27 36 0
2 -27 -36 0
10 27 38 0
10 -27 -38 0
1 27 39 0
1 -27 -39 0
9 27 47 0
9 -27 -47 0
4 27 52 0
4 -27 -52 0
2 27 53 0
2 -27 -53 0
5 27 56 0
5 -27 -56 0
10 27 57 0
10 -27 -57 0
10 27 58 0
10 -27 -58 0
8 28 29 0
8 -28 -29 0
7 28 31 0
7 -28 -31 0
2 28 33 0
2 -28 -33 0
7 28 35 0
7 -28 -35 0
4 28 43 0
4 -28 -43 0
8 28 45 0
8 -28 -45 0
10 28 46 0
10 -28 -46 0
10 28 48 0
10 -28 -48 0
9 28 54 0
9 -28 -54 0
3 29 41 0
3 -29 -41 0
8 29 43 0
8 -29 -43 0
6 29 46 0
6 -29 -46 0
3 30 33 0
3 -30 -33 0
10 30 34 0
10 -30 -34 0
10 30 41 0
10 -30 -41 0
9 30 48 0
9 -30 -48 0
5 30 56 0
5 -30 -56 0
6 30 57 0
6 -30 -57 0
2 30 60 0
2 -30 -60 0
3 31 32 0
3 -31 -32 0
9 31 38 0
9 -31 -38 0
5 31 43 0
5 -31 -43 0
5 31 46 0
5 -31 -46 0
9 31 49 0
9 -31 -49 0
5 31 51 0
5 -31 -51 0
3 31 53 0
3 -31 -53 0
2 31 54 0
2 -31 -54 0
7 32 33 0
7 -32 -33 0
8 32 42 0
8 -32 -42 0
2 32 47 0
2 -32 -47 0
7 32 48 0
7 -32 -48 0
5 32 49 0
5 -32 -49 0
9 32 51 0
9 -32 -51 0
8 32 52 0
8 -32 -52 0
2 32 53 0
2 -32 -53 0
3 32 60 0
3 -32 -60 0
5 33 40 0
5 -33 -40 0
2 33 45 0
2 -33 -45 0
2 33 50 0
2 -33 -50 0
4 33 59 0
4 -33 -59 0
4 34 37 0
4 -34 -37 0
10 34 39 0
10 -34 -39 0
10 34 46 0
10 -34 -46 0
7 34 49 0
7 -34 -49 0
9 34 50 0
9 -34 -50 0
9 34 54 0
9 -34 -54 0
5 34 58 0
5 -34 -58 0
4 35 41 0
4 -35 -41 0
4 35 45 0
4 -35 -45 0
7 35 52 0
7 -35 -52 0
7 35 54 0
7 -35 -54 0
3 35 60 0
3 -35 -60 0
2 36 40 0
2 -36 -40 0
1 36 50 0
1 -36 -50 0
2 36 57 0
2 -36 -57 0
7 36 60 0
7 -36 -60 0
4 37 39 0
4 -37 -39 0
3 37 45 0
3 -37 -45 0
4 37 46 0
4 -37 -46 0
1 37 53 0
1 -37 -53 0
5 37 54 0
5 -37 -54 0
10 37 57 0
10 -37 -57 0
6 38 40 0
6 -38 -40 0
3 38 43 0
3 -38 -43 0
7 38 45 0
7 -38 -45 0
8 38 50 0
8 -38 -50 0
5 38 51 0
5 -38 -51 0
2 38 56 0
2 -38 -56 0
9 38 57 0
9 -38 -57 0
7 38 58 0
7 -38 -58 0
6 38 60 0
6 -38 -60 0
3 39 44 0
3 -39 -44 0
6 39 45 0
6 -39 -45 0
5 39 55 0
5 -39 -55 0
9 39 57 0
9 -39 -57 0
4 39 58 0
4 -39 -58 0
3 40 41 0
3 -40 -41 0
4 40 42 0
4 -40 -42 0
8 40 51 0
8 -40 -51 0
7 40 56 0
7 -40 -56 0
10 40 60 0
10 -40 -60 0
4 41 43 0
4 -41 -43 0
9 41 44 0
9 -41 -44 0
2 41 45 0
2 -41 -45 0
5 41 50 0
5 -41 -50 0
1 41 57 0
1 -41 -57 0
8 42 45 0
8 -42 -45 0
8 42 48 0
8 -42 -48 0
3 42 49 0
3 -42 -49 0
2 42 51 0
2 -42 -51 0
9 43 44 0
9 -43 -44 0
8 43 45 0
8 -43 -45 0
1 43 49 0
1 -43 -49 0
5 43 52 0
5 -43 -52 0
10 44 45 0
10 -44 -45 0
8 44 50 0
8 -44 -50 0
3 44 56 0
3 -44 -56 0
5 44 58 0
5 -44 -58 0
9 44 60 0
9 -44 -60 0
1 45 48 0
1 -45 -48 0
1 45 52 0
1 -45 -52 0
4 45 60 0
4 -45 -60 0
4 46 48 0
4 -46 -48 0
7 46 54 0
7 -46 -54 0
9 46 57 0
9 -46 -57 0
2 46 60 0
2 -46 -60 0
1 47 49 0
1 -47 -49 0
1 47 50 0
1 -47 -50 0
5 47 51 0
5 -47 -51 0
8 47 54 0
8 -47 -54 0
7 48 49 0
7 -48 -49 0
5 48 51 0
5 -48 -51 0
2 48 55 0
2 -48 -55 0
6 48 58 0
6 -48 -58 0
6 48 59 0
6 -48 -59 0
6 49 52 0
6 -49 -52 0
6 49 56 0
6 -49 -56 0
4 50 51 0
4 -50 -51 0
4 50 52 0
4 -50 -52 0
9 50 53 0
9 -50 -53 0
5 50 54 0
5 -50 -54 0
2 51 53 0
2 -51 -53 0
7 51 56 0
7 -51 -56 0
6 51 59 0
6 -51 -59 0
7 51 60 0
7 -51 -60 0
6 53 54 0
6 -53 -54 0
3 53 60 0
3 -53 -60 0
9 54 57 0
9 -54 -57 0
1 55 59 0
1 -55 -59 0
1 55 60 0
1 -55 -60 0
10 56 58 0
10 -56 -58 0
2 56 60 0
2 -56 -60 0
